25
22   80
10   99
5   74
11   83
20   34
18   83
16   84
21   97
23   75
21   64
20   38
9   63
18   81
7   43
12   63
5   62
7   75
16   52
3   90
15   58
13   57
2   86
22   77
12   69
13   55
1000
